(set-info :source |
 Generated by Alive 0.1
 More info in N. P. Lopes, D. Menendez, S. Nagarakatte, J. Regehr.
 Provably Correct Peephole Optimizations with Alive. In PLDI'15.
|)

(set-info :status unknown)
(declare-fun %Y () (_ BitVec 25))
(declare-fun %X () (_ BitVec 25))
(assert
 (let (($x485143 (and (distinct (bvurem ((_ zero_extend 2) %X) ((_ zero_extend 2) %Y)) ((_ zero_extend 2) (bvurem %X %Y))) true)))
 (let ((?x456144 ((_ zero_extend 2) %Y)))
 (let (($x456148 (and (distinct ?x456144 (_ bv0 27)) true)))
 (and $x456148 $x485143)))))
(check-sat)
